Test: fpga13_12_sat.cnf
Options: -print-activity -no-inverting-opt -sym-var-bump
WARNING: for repeatability, setting FPU to use double precision
============================[ Problem Statistics ]=============================
|                                                                             |
|  Number of symmetries:           32                                         |
|  Number of invertingSyms:         0                                         |
|  Number of variables:           234                                         |
|  Number of clauses:            1242                                         |
|  Parse time:                   0.00 s                                       |
|                                                                             |
============================[ Search Statistics ]==============================
| Conflicts |          ORIGINAL         |          LEARNT          | Progress |
|           |    Vars  Clauses Literals |    Limit  Clauses Lit/Cl |          |
===============================================================================
ActiveSyms: 32
ActiveSyms: 28
ActiveSyms: 24
ActiveSyms: 21
ActiveSyms: 21
ActiveSyms: 19
ActiveSyms: 19
ActiveSyms: 18
ActiveSyms: 17
ActiveSyms: 15
ActiveSyms: 15
ActiveSyms: 15
ActiveSyms: 15
ActiveSyms: 12
ActiveSyms: 11
ActiveSyms: 10
ActiveSyms: 11
ActiveSyms: 10
ActiveSyms: 10
ActiveSyms: 10
ActiveSyms: 9
ActiveSyms: 9
ActiveSyms: 9
ActiveSyms: 8
ActiveSyms: 9
ActiveSyms: 9
ActiveSyms: 9
ActiveSyms: 9
ActiveSyms: 9
ActiveSyms: 8
ActiveSyms: 8
ActiveSyms: 9
ActiveSyms: 9
ActiveSyms: 9
ActiveSyms: 9
ActiveSyms: 9
ActiveSyms: 9
ActiveSyms: 9
ActiveSyms: 9
ActiveSyms: 9
ActiveSyms: 9
ActiveSyms: 9
ActiveSyms: 9
ActiveSyms: 9
ActiveSyms: 8
ActiveSyms: 7
ActiveSyms: 7
ActiveSyms: 7
ActiveSyms: 5
ActiveSyms: 5
ActiveSyms: 6
ActiveSyms: 6
ActiveSyms: 6
ActiveSyms: 3
ActiveSyms: 3
ActiveSyms: 2
ActiveSyms: 2
ActiveSyms: 1
ActiveSyms: 2
ActiveSyms: 2
ActiveSyms: 2
ActiveSyms: 2
ActiveSyms: 2
ActiveSyms: 1
ActiveSyms: 2
ActiveSyms: 2
ActiveSyms: 2
ActiveSyms: 2
ActiveSyms: 2
ActiveSyms: 3
ActiveSyms: 3
ActiveSyms: 4
ActiveSyms: 5
ActiveSyms: 5
ActiveSyms: 5
ActiveSyms: 7
ActiveSyms: 6
ActiveSyms: 6
ActiveSyms: 5
ActiveSyms: 5
ActiveSyms: 5
ActiveSyms: 5
ActiveSyms: 6
ActiveSyms: 6
ActiveSyms: 6
ActiveSyms: 6
ActiveSyms: 6
ActiveSyms: 6
ActiveSyms: 6
ActiveSyms: 6
ActiveSyms: 6
ActiveSyms: 7
ActiveSyms: 7
ActiveSyms: 8
ActiveSyms: 8
ActiveSyms: 10
ActiveSyms: 9
ActiveSyms: 9
ActiveSyms: 9
ActiveSyms: 10
ActiveSyms: 9
ActiveSyms: 10
ActiveSyms: 10
ActiveSyms: 10
ActiveSyms: 9
ActiveSyms: 8
ActiveSyms: 10
ActiveSyms: 10
ActiveSyms: 11
ActiveSyms: 12
ActiveSyms: 11
ActiveSyms: 12
ActiveSyms: 12
ActiveSyms: 13
ActiveSyms: 12
ActiveSyms: 12
ActiveSyms: 13
ActiveSyms: 12
ActiveSyms: 13
ActiveSyms: 15
ActiveSyms: 16
ActiveSyms: 16
ActiveSyms: 15
ActiveSyms: 15
ActiveSyms: 18
ActiveSyms: 18
ActiveSyms: 22
ActiveSyms: 20
ActiveSyms: 18
ActiveSyms: 17
ActiveSyms: 16
ActiveSyms: 14
ActiveSyms: 13
ActiveSyms: 11
ActiveSyms: 11
ActiveSyms: 11
ActiveSyms: 9
ActiveSyms: 10
ActiveSyms: 10
ActiveSyms: 9
ActiveSyms: 8
ActiveSyms: 8
ActiveSyms: 8
ActiveSyms: 8
ActiveSyms: 7
ActiveSyms: 6
ActiveSyms: 6
ActiveSyms: 6
ActiveSyms: 7
ActiveSyms: 6
ActiveSyms: 6
ActiveSyms: 6
ActiveSyms: 5
ActiveSyms: 3
ActiveSyms: 4
ActiveSyms: 4
ActiveSyms: 3
ActiveSyms: 3
ActiveSyms: 8
ActiveSyms: 8
ActiveSyms: 8
ActiveSyms: 10
ActiveSyms: 13
ActiveSyms: 14
ActiveSyms: 18
ActiveSyms: 20
ActiveSyms: 22
ActiveSyms: 18
ActiveSyms: 17
ActiveSyms: 15
ActiveSyms: 15
ActiveSyms: 15
ActiveSyms: 13
ActiveSyms: 15
ActiveSyms: 17
ActiveSyms: 18
ActiveSyms: 16
ActiveSyms: 17
ActiveSyms: 16
ActiveSyms: 17
ActiveSyms: 16
ActiveSyms: 17
ActiveSyms: 16
ActiveSyms: 16
ActiveSyms: 16
ActiveSyms: 17
ActiveSyms: 16
ActiveSyms: 16
ActiveSyms: 16
ActiveSyms: 16
ActiveSyms: 17
ActiveSyms: 16
ActiveSyms: 18
ActiveSyms: 16
ActiveSyms: 15
ActiveSyms: 15
ActiveSyms: 15
ActiveSyms: 15
ActiveSyms: 15
ActiveSyms: 15
ActiveSyms: 15
ActiveSyms: 15
ActiveSyms: 16
ActiveSyms: 15
ActiveSyms: 15
ActiveSyms: 14
ActiveSyms: 15
ActiveSyms: 15
ActiveSyms: 16
ActiveSyms: 15
ActiveSyms: 15
ActiveSyms: 15
ActiveSyms: 15
ActiveSyms: 14
ActiveSyms: 15
ActiveSyms: 15
ActiveSyms: 15
ActiveSyms: 14
ActiveSyms: 16
ActiveSyms: 15
ActiveSyms: 15
ActiveSyms: 15
ActiveSyms: 16
ActiveSyms: 13
ActiveSyms: 14
ActiveSyms: 14
ActiveSyms: 14
ActiveSyms: 13
ActiveSyms: 14
ActiveSyms: 14
ActiveSyms: 14
ActiveSyms: 13
ActiveSyms: 13
ActiveSyms: 13
ActiveSyms: 13
ActiveSyms: 14
ActiveSyms: 15
ActiveSyms: 6
ActiveSyms: 5
ActiveSyms: 5
ActiveSyms: 7
ActiveSyms: 5
ActiveSyms: 5
ActiveSyms: 5
ActiveSyms: 4
ActiveSyms: 4
ActiveSyms: 5
ActiveSyms: 5
ActiveSyms: 5
ActiveSyms: 5
ActiveSyms: 5
ActiveSyms: 5
ActiveSyms: 5
ActiveSyms: 5
ActiveSyms: 5
ActiveSyms: 5
ActiveSyms: 5
ActiveSyms: 5
ActiveSyms: 5
ActiveSyms: 5
ActiveSyms: 5
ActiveSyms: 5
ActiveSyms: 5
ActiveSyms: 5
ActiveSyms: 5
ActiveSyms: 6
ActiveSyms: 5
ActiveSyms: 5
ActiveSyms: 5
ActiveSyms: 5
ActiveSyms: 5
ActiveSyms: 6
ActiveSyms: 7
ActiveSyms: 6
ActiveSyms: 7
ActiveSyms: 6
ActiveSyms: 5
ActiveSyms: 5
ActiveSyms: 5
ActiveSyms: 5
ActiveSyms: 5
ActiveSyms: 5
ActiveSyms: 5
ActiveSyms: 5
ActiveSyms: 5
ActiveSyms: 5
ActiveSyms: 5
ActiveSyms: 5
ActiveSyms: 5
ActiveSyms: 4
ActiveSyms: 4
ActiveSyms: 4
ActiveSyms: 3
ActiveSyms: 5
ActiveSyms: 5
ActiveSyms: 5
ActiveSyms: 4
ActiveSyms: 3
ActiveSyms: 4
ActiveSyms: 3
ActiveSyms: 4
ActiveSyms: 4
ActiveSyms: 4
ActiveSyms: 4
ActiveSyms: 4
ActiveSyms: 5
ActiveSyms: 5
ActiveSyms: 4
ActiveSyms: 5
ActiveSyms: 8
ActiveSyms: 7
ActiveSyms: 8
ActiveSyms: 7
ActiveSyms: 6
ActiveSyms: 6
ActiveSyms: 5
ActiveSyms: 5
ActiveSyms: 6
ActiveSyms: 6
ActiveSyms: 4
ActiveSyms: 4
ActiveSyms: 4
ActiveSyms: 4
ActiveSyms: 4
ActiveSyms: 4
ActiveSyms: 4
ActiveSyms: 4
ActiveSyms: 5
ActiveSyms: 5
ActiveSyms: 5
ActiveSyms: 5
ActiveSyms: 5
ActiveSyms: 5
ActiveSyms: 5
ActiveSyms: 5
ActiveSyms: 5
ActiveSyms: 5
ActiveSyms: 5
ActiveSyms: 5
ActiveSyms: 4
ActiveSyms: 5
ActiveSyms: 5
ActiveSyms: 5
ActiveSyms: 4
ActiveSyms: 4
ActiveSyms: 5
ActiveSyms: 5
ActiveSyms: 3
ActiveSyms: 4
ActiveSyms: 5
ActiveSyms: 4
ActiveSyms: 5
ActiveSyms: 5
ActiveSyms: 4
ActiveSyms: 5
ActiveSyms: 6
ActiveSyms: 5
ActiveSyms: 5
ActiveSyms: 5
ActiveSyms: 5
ActiveSyms: 5
ActiveSyms: 4
ActiveSyms: 4
ActiveSyms: 4
ActiveSyms: 4
ActiveSyms: 4
ActiveSyms: 4
ActiveSyms: 4
ActiveSyms: 4
ActiveSyms: 4
ActiveSyms: 4
ActiveSyms: 4
ActiveSyms: 4
ActiveSyms: 4
ActiveSyms: 4
ActiveSyms: 4
ActiveSyms: 4
ActiveSyms: 4
ActiveSyms: 4
ActiveSyms: 5
ActiveSyms: 5
ActiveSyms: 4
ActiveSyms: 4
ActiveSyms: 4
ActiveSyms: 4
ActiveSyms: 4
ActiveSyms: 4
ActiveSyms: 4
ActiveSyms: 4
ActiveSyms: 4
ActiveSyms: 4
ActiveSyms: 4
ActiveSyms: 5
ActiveSyms: 5
ActiveSyms: 5
ActiveSyms: 5
ActiveSyms: 5
ActiveSyms: 5
ActiveSyms: 5
ActiveSyms: 5
ActiveSyms: 5
ActiveSyms: 5
ActiveSyms: 5
ActiveSyms: 5
ActiveSyms: 5
ActiveSyms: 5
ActiveSyms: 5
ActiveSyms: 5
ActiveSyms: 5
ActiveSyms: 5
ActiveSyms: 5
ActiveSyms: 5
ActiveSyms: 5
ActiveSyms: 5
ActiveSyms: 5
ActiveSyms: 5
ActiveSyms: 5
ActiveSyms: 5
ActiveSyms: 5
ActiveSyms: 5
ActiveSyms: 5
ActiveSyms: 5
ActiveSyms: 5
ActiveSyms: 5
ActiveSyms: 5
ActiveSyms: 6
ActiveSyms: 6
ActiveSyms: 7
ActiveSyms: 7
ActiveSyms: 7
ActiveSyms: 7
ActiveSyms: 7
ActiveSyms: 7
ActiveSyms: 7
ActiveSyms: 7
ActiveSyms: 7
ActiveSyms: 7
ActiveSyms: 7
ActiveSyms: 7
ActiveSyms: 7
ActiveSyms: 7
ActiveSyms: 7
ActiveSyms: 7
ActiveSyms: 7
ActiveSyms: 7
ActiveSyms: 7
ActiveSyms: 7
ActiveSyms: 7
ActiveSyms: 7
ActiveSyms: 6
ActiveSyms: 7
ActiveSyms: 7
ActiveSyms: 7
ActiveSyms: 7
ActiveSyms: 7
ActiveSyms: 7
ActiveSyms: 7
ActiveSyms: 7
ActiveSyms: 7
ActiveSyms: 6
ActiveSyms: 6
ActiveSyms: 6
ActiveSyms: 6
ActiveSyms: 6
ActiveSyms: 6
ActiveSyms: 6
ActiveSyms: 6
ActiveSyms: 6
ActiveSyms: 6
ActiveSyms: 6
ActiveSyms: 6
ActiveSyms: 6
ActiveSyms: 7
|       100 |     234     1242     3396 |      455      224     40 |  0.002 % |
ActiveSyms: 7
ActiveSyms: 32
ActiveSyms: 28
ActiveSyms: 24
ActiveSyms: 24
ActiveSyms: 24
ActiveSyms: 24
ActiveSyms: 24
ActiveSyms: 22
ActiveSyms: 22
ActiveSyms: 23
ActiveSyms: 23
ActiveSyms: 24
ActiveSyms: 21
ActiveSyms: 21
ActiveSyms: 21
ActiveSyms: 21
ActiveSyms: 22
ActiveSyms: 20
ActiveSyms: 20
ActiveSyms: 20
ActiveSyms: 21
ActiveSyms: 21
ActiveSyms: 22
ActiveSyms: 19
ActiveSyms: 18
ActiveSyms: 18
ActiveSyms: 18
ActiveSyms: 18
ActiveSyms: 19
ActiveSyms: 19
ActiveSyms: 19
ActiveSyms: 20
ActiveSyms: 20
ActiveSyms: 18
ActiveSyms: 17
ActiveSyms: 17
ActiveSyms: 17
ActiveSyms: 17
ActiveSyms: 18
ActiveSyms: 17
ActiveSyms: 17
ActiveSyms: 19
ActiveSyms: 20
ActiveSyms: 17
ActiveSyms: 17
ActiveSyms: 18
ActiveSyms: 17
ActiveSyms: 19
ActiveSyms: 18
ActiveSyms: 18
ActiveSyms: 18
ActiveSyms: 15
ActiveSyms: 15
ActiveSyms: 15
ActiveSyms: 15
ActiveSyms: 14
ActiveSyms: 13
ActiveSyms: 13
ActiveSyms: 13
ActiveSyms: 15
ActiveSyms: 13
ActiveSyms: 11
ActiveSyms: 12
ActiveSyms: 14
ActiveSyms: 13
ActiveSyms: 11
ActiveSyms: 12
ActiveSyms: 16
ActiveSyms: 15
ActiveSyms: 15
ActiveSyms: 15
ActiveSyms: 16
ActiveSyms: 15
ActiveSyms: 15
ActiveSyms: 15
ActiveSyms: 11
ActiveSyms: 11
ActiveSyms: 11
ActiveSyms: 11
ActiveSyms: 10
ActiveSyms: 9
ActiveSyms: 8
ActiveSyms: 9
ActiveSyms: 9
ActiveSyms: 9
ActiveSyms: 9
ActiveSyms: 9
ActiveSyms: 9
ActiveSyms: 9
ActiveSyms: 9
ActiveSyms: 9
ActiveSyms: 9
ActiveSyms: 9
ActiveSyms: 9
ActiveSyms: 9
ActiveSyms: 9
ActiveSyms: 9
ActiveSyms: 9
ActiveSyms: 9
ActiveSyms: 9
ActiveSyms: 9
ActiveSyms: 9
ActiveSyms: 9
ActiveSyms: 9
ActiveSyms: 9
ActiveSyms: 9
ActiveSyms: 10
ActiveSyms: 11
ActiveSyms: 11
ActiveSyms: 11
ActiveSyms: 12
ActiveSyms: 10
ActiveSyms: 10
ActiveSyms: 10
ActiveSyms: 9
ActiveSyms: 9
ActiveSyms: 8
ActiveSyms: 9
ActiveSyms: 9
ActiveSyms: 10
ActiveSyms: 9
ActiveSyms: 9
ActiveSyms: 8
ActiveSyms: 10
ActiveSyms: 14
ActiveSyms: 11
ActiveSyms: 11
ActiveSyms: 11
ActiveSyms: 11
ActiveSyms: 15
ActiveSyms: 15
ActiveSyms: 11
ActiveSyms: 11
ActiveSyms: 12
ActiveSyms: 16
ActiveSyms: 15
ActiveSyms: 12
ActiveSyms: 10
ActiveSyms: 10
ActiveSyms: 10
ActiveSyms: 10
ActiveSyms: 11
ActiveSyms: 11
ActiveSyms: 10
ActiveSyms: 9
ActiveSyms: 9
ActiveSyms: 10
ActiveSyms: 10
ActiveSyms: 9
ActiveSyms: 9
ActiveSyms: 10
ActiveSyms: 9
ActiveSyms: 8
ActiveSyms: 7
ActiveSyms: 7
ActiveSyms: 5
ActiveSyms: 5
ActiveSyms: 3
ActiveSyms: 2
ActiveSyms: 2
ActiveSyms: 2
ActiveSyms: 2
ActiveSyms: 2
ActiveSyms: 2
ActiveSyms: 2
ActiveSyms: 3
ActiveSyms: 3
ActiveSyms: 2
ActiveSyms: 2
ActiveSyms: 2
ActiveSyms: 3
ActiveSyms: 3
ActiveSyms: 4
ActiveSyms: 4
ActiveSyms: 5
ActiveSyms: 5
ActiveSyms: 4
ActiveSyms: 4
ActiveSyms: 4
ActiveSyms: 4
ActiveSyms: 3
ActiveSyms: 3
ActiveSyms: 3
ActiveSyms: 3
ActiveSyms: 3
ActiveSyms: 3
ActiveSyms: 2
ActiveSyms: 2
ActiveSyms: 2
ActiveSyms: 2
ActiveSyms: 2
ActiveSyms: 2
ActiveSyms: 2
ActiveSyms: 2
ActiveSyms: 2
ActiveSyms: 2
ActiveSyms: 2
ActiveSyms: 2
ActiveSyms: 2
ActiveSyms: 2
ActiveSyms: 2
ActiveSyms: 2
ActiveSyms: 2
ActiveSyms: 2
ActiveSyms: 2
ActiveSyms: 2
ActiveSyms: 2
ActiveSyms: 2
ActiveSyms: 2
ActiveSyms: 3
ActiveSyms: 2
ActiveSyms: 2
ActiveSyms: 2
ActiveSyms: 2
ActiveSyms: 2
ActiveSyms: 2
ActiveSyms: 2
ActiveSyms: 2
ActiveSyms: 2
ActiveSyms: 2
ActiveSyms: 2
ActiveSyms: 2
ActiveSyms: 2
ActiveSyms: 3
ActiveSyms: 3
ActiveSyms: 3
ActiveSyms: 3
ActiveSyms: 3
ActiveSyms: 2
ActiveSyms: 3
ActiveSyms: 3
ActiveSyms: 3
ActiveSyms: 3
ActiveSyms: 3
ActiveSyms: 2
ActiveSyms: 3
ActiveSyms: 3
ActiveSyms: 3
ActiveSyms: 2
ActiveSyms: 2
ActiveSyms: 2
ActiveSyms: 3
ActiveSyms: 4
ActiveSyms: 3
ActiveSyms: 2
ActiveSyms: 2
ActiveSyms: 3
ActiveSyms: 3
ActiveSyms: 3
ActiveSyms: 3
ActiveSyms: 3
ActiveSyms: 3
ActiveSyms: 3
ActiveSyms: 3
ActiveSyms: 2
ActiveSyms: 2
ActiveSyms: 2
ActiveSyms: 2
ActiveSyms: 2
ActiveSyms: 2
ActiveSyms: 2
ActiveSyms: 2
ActiveSyms: 2
ActiveSyms: 2
ActiveSyms: 2
ActiveSyms: 2
ActiveSyms: 2
ActiveSyms: 2
ActiveSyms: 2
ActiveSyms: 2
ActiveSyms: 2
ActiveSyms: 2
ActiveSyms: 2
ActiveSyms: 2
ActiveSyms: 2
ActiveSyms: 2
ActiveSyms: 2
ActiveSyms: 2
ActiveSyms: 2
ActiveSyms: 2
ActiveSyms: 2
ActiveSyms: 2
ActiveSyms: 2
ActiveSyms: 2
ActiveSyms: 2
ActiveSyms: 2
ActiveSyms: 2
ActiveSyms: 2
ActiveSyms: 2
ActiveSyms: 2
ActiveSyms: 2
ActiveSyms: 2
ActiveSyms: 2
ActiveSyms: 2
ActiveSyms: 2
ActiveSyms: 2
ActiveSyms: 2
ActiveSyms: 2
ActiveSyms: 2
ActiveSyms: 2
ActiveSyms: 2
ActiveSyms: 2
ActiveSyms: 2
ActiveSyms: 2
ActiveSyms: 2
ActiveSyms: 2
ActiveSyms: 2
ActiveSyms: 2
ActiveSyms: 2
ActiveSyms: 2
ActiveSyms: 2
ActiveSyms: 2
ActiveSyms: 2
ActiveSyms: 2
ActiveSyms: 2
ActiveSyms: 2
ActiveSyms: 2
ActiveSyms: 2
ActiveSyms: 2
ActiveSyms: 2
ActiveSyms: 2
ActiveSyms: 2
ActiveSyms: 2
ActiveSyms: 2
ActiveSyms: 3
ActiveSyms: 3
ActiveSyms: 3
ActiveSyms: 2
ActiveSyms: 2
ActiveSyms: 3
ActiveSyms: 3
ActiveSyms: 3
ActiveSyms: 3
ActiveSyms: 3
ActiveSyms: 3
ActiveSyms: 3
ActiveSyms: 3
ActiveSyms: 3
ActiveSyms: 3
ActiveSyms: 3
ActiveSyms: 3
ActiveSyms: 3
ActiveSyms: 3
ActiveSyms: 3
ActiveSyms: 3
ActiveSyms: 3
ActiveSyms: 4
ActiveSyms: 3
ActiveSyms: 2
ActiveSyms: 32
ActiveSyms: 29
ActiveSyms: 27
ActiveSyms: 23
ActiveSyms: 23
ActiveSyms: 22
ActiveSyms: 22
ActiveSyms: 21
ActiveSyms: 21
ActiveSyms: 17
ActiveSyms: 16
ActiveSyms: 14
ActiveSyms: 14
ActiveSyms: 14
ActiveSyms: 14
ActiveSyms: 14
ActiveSyms: 14
ActiveSyms: 14
ActiveSyms: 14
ActiveSyms: 14
ActiveSyms: 14
ActiveSyms: 13
ActiveSyms: 11
ActiveSyms: 10
ActiveSyms: 6
ActiveSyms: 4
ActiveSyms: 6
ActiveSyms: 6
ActiveSyms: 6
ActiveSyms: 6
ActiveSyms: 4
ActiveSyms: 4
ActiveSyms: 4
ActiveSyms: 6
ActiveSyms: 5
ActiveSyms: 3
ActiveSyms: 2
ActiveSyms: 4
ActiveSyms: 6
ActiveSyms: 5
ActiveSyms: 4
ActiveSyms: 4
ActiveSyms: 5
ActiveSyms: 5
ActiveSyms: 5
ActiveSyms: 5
ActiveSyms: 5
ActiveSyms: 4
ActiveSyms: 4
ActiveSyms: 4
ActiveSyms: 5
ActiveSyms: 3
ActiveSyms: 2
ActiveSyms: 2
ActiveSyms: 2
ActiveSyms: 2
ActiveSyms: 3
ActiveSyms: 2
ActiveSyms: 2
ActiveSyms: 2
ActiveSyms: 5
ActiveSyms: 4
ActiveSyms: 3
ActiveSyms: 3
ActiveSyms: 2
ActiveSyms: 2
ActiveSyms: 2
ActiveSyms: 2
ActiveSyms: 3
ActiveSyms: 3
ActiveSyms: 2
ActiveSyms: 2
ActiveSyms: 2
ActiveSyms: 2
ActiveSyms: 2
ActiveSyms: 4
ActiveSyms: 4
ActiveSyms: 4
ActiveSyms: 3
ActiveSyms: 3
ActiveSyms: 2
ActiveSyms: 3
ActiveSyms: 3
ActiveSyms: 2
ActiveSyms: 3
ActiveSyms: 2
ActiveSyms: 2
ActiveSyms: 2
ActiveSyms: 3
ActiveSyms: 3
ActiveSyms: 2
ActiveSyms: 3
ActiveSyms: 3
ActiveSyms: 3
ActiveSyms: 3
ActiveSyms: 3
ActiveSyms: 3
ActiveSyms: 4
ActiveSyms: 4
ActiveSyms: 3
ActiveSyms: 3
ActiveSyms: 3
ActiveSyms: 2
ActiveSyms: 2
ActiveSyms: 2
ActiveSyms: 3
ActiveSyms: 5
ActiveSyms: 6
ActiveSyms: 4
ActiveSyms: 4
ActiveSyms: 4
ActiveSyms: 4
ActiveSyms: 3
ActiveSyms: 2
ActiveSyms: 2
ActiveSyms: 2
ActiveSyms: 2
ActiveSyms: 2
ActiveSyms: 1
ActiveSyms: 1
ActiveSyms: 0
===============================================================================
restarts              : 3
conflicts             : 228            (11399 /sec)
symconflicts          : 34             (1700 /sec)
decisions             : 714            (0.00 % random) (35698 /sec)
propagations          : 5067           (253337 /sec)
sympropagations       : 244            (12199 /sec)
conflict literals     : 7598           (1.62 % deleted)
literals     : 7598           (1.62 % deleted)

HEURISTIC USAGES
random                : 0           
activity w/ lookahead : 0           
activity no lookahead : 0           
original sp           : 713         
sym count             : 0           

Memory used           : 5.00 MB
CPU time              : 0.020001 s

SATISFIABLE
